(declare-fun temp545_2 () (_ BitVec 64))
(declare-fun temp545_1 () (_ BitVec 64))
(declare-fun temp545_4 () (_ BitVec 64))
(declare-fun temp545_3 () (_ BitVec 64))
(declare-fun temp545_6 () (_ BitVec 64))
(declare-fun temp545_5 () (_ BitVec 64))
(declare-fun temp545_8 () (_ BitVec 64))
(declare-fun temp545_7 () (_ BitVec 64))
(declare-fun temp545_10 () (_ BitVec 64))
(declare-fun temp545_9 () (_ BitVec 64))
(declare-fun temp545_12 () (_ BitVec 64))
(declare-fun temp545_11 () (_ BitVec 64))
(declare-fun temp545_14 () (_ BitVec 64))
(declare-fun temp545_13 () (_ BitVec 64))
(declare-fun temp545_16 () (_ BitVec 64))
(declare-fun temp545_15 () (_ BitVec 64))
(declare-fun temp545_18 () (_ BitVec 64))
(declare-fun temp545_17 () (_ BitVec 64))
(declare-fun temp545_19 () (_ BitVec 64))
(declare-fun temp545_20 () (_ BitVec 64))
(declare-fun temp545_21 () (_ BitVec 64))
(declare-fun temp545_22 () (_ BitVec 64))
(declare-fun temp545_23 () (_ BitVec 64))
(declare-fun var66553 () (_ BitVec 64))
(declare-fun temp545_24 () (_ BitVec 64))
(declare-fun var66557 () (_ BitVec 64))
(declare-fun temp545_25 () (_ BitVec 64))
(declare-fun temp545_27 () (_ BitVec 64))
(declare-fun temp545_26 () (_ BitVec 64))
(declare-fun temp545_28 () (_ BitVec 64))
(declare-fun var66617 () (_ BitVec 64))
(declare-fun temp545_29 () (_ BitVec 64))
(declare-fun var66620 () (_ BitVec 64))
(declare-fun temp545_30 () (_ BitVec 64))
(declare-fun temp545_31 () (_ BitVec 64))
(declare-fun temp545_32 () (_ BitVec 64))
(declare-fun temp545_33 () (_ BitVec 64))
(declare-fun temp545_34 () (_ BitVec 64))
(declare-fun temp545_35 () (_ BitVec 64))
(declare-fun temp545_36 () (_ BitVec 64))
(declare-fun temp545_37 () (_ BitVec 64))
(assert (= temp545_2 #x0000000000000000))
(assert (= temp545_1 temp545_2))
(assert (= temp545_4 #x0000000000000004))
(assert (= temp545_3 temp545_4))
(assert (= temp545_6 #x0000000000000001))
(assert (= temp545_5 temp545_6))
(assert (= temp545_8 #x0000000000000001))
(assert (= temp545_7 temp545_8))
(assert (= temp545_10 #x0000000000000000))
(assert (= temp545_9 temp545_10))
(assert (= temp545_12 #x0000000000000001))
(assert (= temp545_11 temp545_12))
(assert (= temp545_14 #x0000000000000000))
(assert (= temp545_13 temp545_14))
(assert (= temp545_16 #x0000000000000000))
(assert (= temp545_15 temp545_16))
(assert (= temp545_18 #x0000000000000000))
(assert (= temp545_17 temp545_18))
(assert (= temp545_19 #x0000000000000001))
(assert (= temp545_20 #x0000000000000002))
(assert (= temp545_21 #x0000000000000004))
(assert (= temp545_22 #x0000000000000008))
(assert (or false
    (= temp545_7 temp545_19)
    (= temp545_7 temp545_20)
    (= temp545_7 temp545_21)
    (= temp545_7 temp545_22)))
(assert (= temp545_23 #x0000000000000000))
(assert (= var66553 temp545_23))
(assert (= temp545_24 #x0000000000000000))
(assert (= var66557 (ite (= var66553 temp545_24) #x0000000000000001 #x0000000000000000)))
(assert (= temp545_25 #x0000000000000001))
(assert (= var66557 temp545_25))
(assert (= temp545_27 #x0000000000000001))
(assert (= temp545_26 temp545_27))
(assert (= temp545_28 #x0000000000000000))
(assert (= var66617 temp545_28))
(assert (= temp545_29 #x0000000000000000))
(assert (= var66620 (ite (= var66617 temp545_29) #x0000000000000001 #x0000000000000000)))
(assert (= temp545_30 #x0000000000000001))
(assert (= var66620 temp545_30))
(assert (= temp545_31 #x0000000000000001))
(assert (= temp545_32 #x0000000000000004))
(assert (= temp545_33 #x0000000000000011))
(assert (or false
    (= temp545_3 temp545_31)
    (= temp545_3 temp545_32)
    (= temp545_3 temp545_33)))
(assert (= temp545_34 #x0000000000000000))
(assert (= temp545_35 #x0000000000000001))
(assert (= temp545_36 #x0000000000000003))
(assert (= temp545_37 #x0000000000000004))
(assert (or false
    (= temp545_1 temp545_34)
    (= temp545_1 temp545_35)
    (= temp545_1 temp545_36)
    (= temp545_1 temp545_37)))
(model-add temp545_2 () (_ BitVec 64) #x0000000000000000)
(model-add temp545_1 () (_ BitVec 64) #x0000000000000000)
(model-add temp545_4 () (_ BitVec 64) #x0000000000000004)
(model-add temp545_3 () (_ BitVec 64) #x0000000000000004)
(model-add temp545_6 () (_ BitVec 64) #x0000000000000001)
(model-add temp545_5 () (_ BitVec 64) #x0000000000000001)
(model-add temp545_8 () (_ BitVec 64) #x0000000000000001)
(model-add temp545_7 () (_ BitVec 64) #x0000000000000001)
(model-add temp545_10 () (_ BitVec 64) #x0000000000000000)
(model-add temp545_9 () (_ BitVec 64) #x0000000000000000)
(model-add temp545_12 () (_ BitVec 64) #x0000000000000001)
(model-add temp545_11 () (_ BitVec 64) #x0000000000000001)
(model-add temp545_14 () (_ BitVec 64) #x0000000000000000)
(model-add temp545_13 () (_ BitVec 64) #x0000000000000000)
(model-add temp545_16 () (_ BitVec 64) #x0000000000000000)
(model-add temp545_15 () (_ BitVec 64) #x0000000000000000)
(model-add temp545_18 () (_ BitVec 64) #x0000000000000000)
(model-add temp545_17 () (_ BitVec 64) #x0000000000000000)
(model-add temp545_19 () (_ BitVec 64) #x0000000000000001)
(model-add temp545_20 () (_ BitVec 64) #x0000000000000002)
(model-add temp545_21 () (_ BitVec 64) #x0000000000000004)
(model-add temp545_22 () (_ BitVec 64) #x0000000000000008)
















